p cnf 15 27
-7 -14 -13 -9 0
-15 0
-15 -13 -7 -5 0
-8 -14 4 0
11 5 0
1 15 0
-7 -14 0
-15 -5 -7 0
-7 -4 5 -2 0
-1 0
-15 0
-15 0
-14 2 -4 -1 0
-7 7 1 -9 0
9 -11 1 -9 0
-14 13 -1 -10 0
-6 -5 0
10 2 6 -13 0
8 -6 -4 12 0
9 -4 0
-1 7 0
2 3 5 0
-7 4 -11 0
11 -13 0
4 -9 0
-15 -5 -2 -13 0
14 0
